29
-1 null 0 0.0 0.0 0.0
1 1 0 0.0 0.0 0.0
2 1 0 0.0 0.0 0.0
3 1 0 107.0 241.0 0.0
4 1 0 0.0 148.0 0.0
5 1 0 148.0 0.0 0.0
6 1 0 137.0 374.0 0.0
7 1 0 88.0 171.0 0.0
8 1 0 127.0 259.0 0.0
9 1 0 336.0 509.0 0.0
10 1 0 183.0 317.0 0.0
11 1 0 134.0 217.0 0.0
12 1 0 95.0 232.0 0.0
13 1 0 254.0 491.0 0.0
14 1 0 180.0 312.0 0.0
15 1 0 101.0 280.0 0.0
16 1 0 234.0 391.0 0.0
17 1 0 175.0 412.0 0.0
18 1 0 176.0 349.0 0.0
19 1 0 265.0 422.0 0.0
20 1 0 199.0 356.0 0.0
21 1 0 182.0 355.0 0.0
22 1 0 67.0 204.0 0.0
23 1 0 42.0 182.0 0.0
24 1 0 278.0 435.0 0.0
25 1 0 271.0 417.0 0.0
26 1 0 146.0 292.0 0.0
27 1 0 251.0 424.0 0.0
28 1 0 105.0 116.0 0.0
29 1 0 191.0 337.0 0.0
